01 02 03 04 05 06 07 08 09 10
36 00 00 00 00 00 00 00 00 11
35 00 00 00 00 00 00 00 00 12
34 00 00 00 00 00 00 00 00 13
33 00 00 00 00 00 00 00 00 14
32 00 00 00 00 00 00 00 00 15
31 00 00 00 00 00 00 00 00 16
30 00 00 00 00 00 00 00 00 17
29 00 00 00 00 00 00 00 00 18
28 27 26 25 24 23 22 21 20 19